\* Problem: Unknown *\

Maximize
 obj: + xp_0_0 + xp_0_1 + xp_0_2 + xp_0_3 + xp_0_4 + xp_0_5 + xp_0_6
 + xp_0_7 + xp_0_8 + xp_0_9 + xp_1_0 + xp_1_1 + xp_1_2 + xp_2_0 + xp_2_1
 + xp_2_2 + xp_2_3 + xp_2_4 + xp_3_0 + xp_3_1 + xp_3_2 + xp_4_0 + xp_5_0
 + xp_5_1 + xp_5_2 + xp_6_0 + xp_6_1 + xp_6_2 + xp_6_3 + xp_7_0 + xp_7_1
 + xp_7_2 + xp_8_0 + xp_8_1 + xp_9_0 + xp_10_0 + xp_10_1 + xp_11_0
 + xp_11_1 + xp_11_2 + xp_11_3 + xp_12_0 + xp_13_0 + xp_13_1 + xp_14_0
 + xp_14_1 + xp_15_0 + xp_15_1 + xp_16_0 + xp_16_1 + xp_17_0 + xp_17_1
 + xp_17_2 + xp_17_3 + xp_17_4 + xp_17_5 + xp_18_0 + xp_18_1 + xp_18_2
 + xp_18_3 + xp_18_4 + xp_18_5 + xp_19_0 + xp_19_1 + xp_19_2 + xp_19_3
 + xp_19_4 + xp_20_0 + xp_20_1 + xp_20_2 + xp_20_3 + xp_21_0 + xp_21_1
 + xp_21_2 + xp_21_3 + xp_21_4 + xp_22_0 + xp_22_1 + xp_22_2 + xp_22_3
 + xp_22_4 + xp_22_5 + xp_22_6 + xp_22_7 + xp_23_0 + xp_23_1 + xp_23_2
 + xp_23_3 + xp_23_4 + xp_23_5

Subject To
 r_1: 0 xp_0_0 <= 29.0077821011673
 r_2: + xp_22_3 + xp_18_1 + xp_17_3 + xp_5_2 + xp_2_3
 <= 28.3056478405316
 r_3: + xp_23_3 + xp_21_1 + xp_18_4 + xp_18_3 + xp_15_1 <= 30
 r_4: + xp_18_5 + xp_17_2 + xp_15_0 <= 30
 r_5: + xp_18_0 <= 27.0554272517321
 r_6: + xp_18_2 <= 29.4574468085106
 r_7: + xp_20_3 <= 29.0077821011673
 r_8: + xp_23_5 + xp_22_2 + xp_11_3 + xp_6_1 + xp_5_1 + xp_3_2 + xp_2_1
 <= 28.3056478405316
 r_9: + xp_23_2 + xp_17_4 + xp_11_1 + xp_6_2 + xp_3_1
 <= 29.4574468085106
 r_10: + xp_3_0 <= 29.4574468085106
 r_11: + xp_18_4 + xp_18_2 + xp_11_2 + xp_0_9 <= 27.0554272517321
 r_12: + xp_11_0 <= 29.4574468085106
 r_13: 0 xp_0_0 <= 29.4574468085106
 r_14: + xp_21_2 + xp_14_0 + xp_0_7 + xp_0_1 <= 28.3056478405316
 r_15: + xp_21_0 + xp_19_3 <= 29.0077821011673
 r_16: + xp_22_1 + xp_21_3 + xp_19_4 + xp_0_8 + xp_0_5 + xp_0_3 + xp_0_2
 <= 29.0077821011673
 r_17: + xp_0_0 <= 27.0554272517321
 r_18: + xp_21_1 + xp_4_0 <= 29.0077821011673
 r_19: + xp_19_0 + xp_0_9 <= 29.0077821011673
 r_20: + xp_21_4 + xp_19_2 + xp_19_1 + xp_14_1 + xp_0_6 + xp_0_4
 <= 29.0077821011673
 r_21: + xp_20_1 <= 28.3056478405316
 r_22: + xp_21_2 + xp_7_1 <= 28.3056478405316
 r_23: + xp_22_4 + xp_22_3 + xp_22_2 <= 28.3056478405316
 r_24: + xp_23_5 + xp_23_4 + xp_17_3 + xp_7_2 + xp_6_1 + xp_3_2 + xp_0_7
 + xp_0_6 <= 28.3056478405316
 r_25: 0 xp_0_0 <= 28.3056478405316
 r_26: + xp_18_1 + xp_0_4 + xp_0_1 <= 27.0554272517321
 r_27: + xp_11_3 <= 28.3056478405316
 r_28: + xp_19_2 + xp_10_1 <= 28.3056478405316
 r_29: + xp_20_2 <= 29.0077821011673
 r_30: + xp_2_0 <= 28.3056478405316
 r_31: + xp_23_3 + xp_23_2 + xp_18_3 + xp_17_4 + xp_15_1 + xp_6_2
 + xp_3_1 + xp_2_4 <= 28.3056478405316
 r_32: + xp_2_2 <= 30
 r_33: + xp_11_1 + xp_2_3 <= 30
 r_34: + xp_19_3 + xp_18_4 + xp_2_1 <= 29.4574468085106
 r_35: 0 xp_0_0 <= 29.0077821011673
 r_36: + xp_9_0 <= 28.3056478405316
 r_37: + xp_21_3 + xp_13_1 + xp_8_1 + xp_6_3 + xp_0_3
 <= 28.3056478405316
 r_38: + xp_1_1 + xp_0_8 <= 30
 r_39: + xp_19_4 + xp_17_1 + xp_0_5 <= 30
 r_40: + xp_0_2 <= 27.0554272517321
 r_41: + xp_12_0 + xp_2_4 <= 28.3056478405316
 r_42: + xp_21_3 + xp_7_2 <= 28.3056478405316
 r_43: + xp_22_6 + xp_16_0 <= 28.3056478405316
 r_44: + xp_23_5 + xp_23_4 + xp_23_3 + xp_23_2 + xp_23_1 + xp_22_5
 + xp_16_1 + xp_1_2 <= 28.3056478405316
 r_45: + xp_17_5 + xp_17_4 + xp_17_3 + xp_15_1 + xp_3_2 + xp_3_1
 <= 28.3056478405316
 r_46: + xp_18_3 + xp_0_7 + xp_0_6 + xp_0_3 <= 27.0554272517321
 r_47: + xp_22_7 + xp_22_5 + xp_16_1 + xp_13_1 <= 30
 r_48: + xp_13_0 <= 28.3056478405316
 r_49: 0 xp_0_0 <= 30
 r_50: + xp_0_8 <= 27.0554272517321
 r_51: + xp_8_1 + xp_1_1 <= 30
 r_52: + xp_8_0 + xp_1_2 <= 28.3056478405316
 r_53: + xp_1_0 <= 30
 r_54: + xp_18_5 + xp_0_5 <= 27.0554272517321
 r_55: 0 xp_0_0 <= 30
 r_56: + xp_19_4 <= 29.4574468085106
 r_57: + xp_22_1 <= 27.0554272517321
 r_58: + xp_23_4 + xp_22_4 + xp_5_0 <= 27.0554272517321
 r_59: + xp_22_0 + xp_17_1 + xp_6_3 <= 27.0554272517321
 r_60: + xp_23_1 + xp_22_6 + xp_22_5 + xp_17_5 + xp_6_0
 <= 27.0554272517321
 r_61: + xp_23_0 + xp_22_7 <= 27.0554272517321
 r_62: + xp_17_0 <= 27.0554272517321
 r_63: + xp_23_3 + xp_22_3 + xp_17_3 + xp_17_2 + xp_11_2 + xp_5_2
 <= 27.0554272517321
 r_64: + xp_23_5 + xp_23_2 + xp_22_2 + xp_17_4 + xp_6_2 + xp_6_1
 + xp_5_1 <= 27.0554272517321
 r_65: + xp_20_1 + xp_19_2 + xp_14_1 + xp_10_1 + xp_7_2 + xp_7_1
 + xp_2_2 + xp_0_6 + xp_0_4 <= 28.3056478405316
 r_66: + xp_21_4 + xp_20_2 + xp_7_0 <= 30
 r_67: + xp_20_3 + xp_19_1 + xp_10_0 <= 29.4574468085106
 r_68: + xp_20_0 <= 29.0077821011673

Bounds
 0 <= xp_0_0 <= 28.2562402973696
 0 <= xp_0_1 <= 6.97507041196431
 0 <= xp_0_2 <= 14.430609157308
 0 <= xp_0_3 <= 1.97509016286593
 0 <= xp_0_4 <= 3.02489008623244
 0 <= xp_0_5 <= 3.95018032573187
 0 <= xp_0_6 <= 0.604978017246487
 0 <= xp_0_7 <= 1.97509016286593
 0 <= xp_0_8 <= 1.97509016286593
 0 <= xp_0_9 <= 0.604978017246487
 0 <= xp_1_0 <= 19.827989397716
 0 <= xp_1_1 <= 13.9027189091182
 0 <= xp_1_2 <= 1.97509016286593
 0 <= xp_2_0 <= 23.3452023084854
 0 <= xp_2_1 <= 1.0794736779734
 0 <= xp_2_2 <= 1.97509016286593
 0 <= xp_2_3 <= 5.21351119678613
 0 <= xp_2_4 <= 3.59430067982603
 0 <= xp_3_0 <= 26.7615750158995
 0 <= xp_3_1 <= 4.50769692636469
 0 <= xp_3_2 <= 1.44720386485643
 0 <= xp_4_0 <= 26.5717570007071
 0 <= xp_5_0 <= 15.1838611432612
 0 <= xp_5_1 <= 1.89798264290765
 0 <= xp_5_2 <= 9.48991321453824
 0 <= xp_6_0 <= 18.7900281647857
 0 <= xp_6_1 <= 1.70818437861688
 0 <= xp_6_2 <= 1.70818437861688
 0 <= xp_6_3 <= 1.70818437861688
 0 <= xp_7_0 <= 18.0071103245863
 0 <= xp_7_1 <= 3.27402005901569
 0 <= xp_7_2 <= 1.63701002950785
 0 <= xp_8_0 <= 17.6512385790411
 0 <= xp_8_1 <= 2.94187309650686
 0 <= xp_9_0 <= 19.0984503442582
 0 <= xp_10_0 <= 17.7342753196683
 0 <= xp_10_1 <= 1.36417502458987
 0 <= xp_11_0 <= 27.6512622801231
 0 <= xp_11_1 <= 15.6642820744767
 0 <= xp_11_2 <= 4.54920147104716
 0 <= xp_11_3 <= 12.5860013509617
 0 <= xp_12_0 <= 17.9359359754773
 0 <= xp_13_0 <= 13.7010622034896
 0 <= xp_13_1 <= 3.73665332822443
 0 <= xp_14_0 <= 11.8623915181728
 0 <= xp_14_1 <= 4.74495660726912
 0 <= xp_15_0 <= 15.2668978838884
 0 <= xp_15_1 <= 1.17437676029911
 0 <= xp_16_0 <= 14.6500535249434
 0 <= xp_16_1 <= 1.12692719422642
 0 <= xp_17_0 <= 27.6690459919495
 0 <= xp_17_1 <= 8.58836355879646
 0 <= xp_17_2 <= 4.62039952123815
 0 <= xp_17_3 <= 1.32265467918611
 0 <= xp_17_4 <= 2.64530935837221
 0 <= xp_17_5 <= 1.32265467918611
 0 <= xp_18_0 <= 20.9074670258697
 0 <= xp_18_1 <= 3.15539614383397
 0 <= xp_18_2 <= 13.8018905563039
 0 <= xp_18_3 <= 3.15539614383397
 0 <= xp_18_4 <= 1.97509016286593
 0 <= xp_18_5 <= 1.18030598096803
 0 <= xp_19_0 <= 27.9656097300842
 0 <= xp_19_1 <= 4.57887522565405
 0 <= xp_19_2 <= 4.57887522565405
 0 <= xp_19_3 <= 5.40924658210647
 0 <= xp_19_4 <= 1.14471880641351
 0 <= xp_20_0 <= 27.8469858149025
 0 <= xp_20_1 <= 5.23131070933388
 0 <= xp_20_2 <= 5.42703424411325
 0 <= xp_20_3 <= 4.3416273952906
 0 <= xp_21_0 <= 24.5907534178935
 0 <= xp_21_1 <= 2.86476162636824
 0 <= xp_21_2 <= 6.74969287347967
 0 <= xp_21_3 <= 2.93001070498868
 0 <= xp_21_4 <= 3.88493124711143
 0 <= xp_22_0 <= 16.0320241119007
 0 <= xp_22_1 <= 2.50888988082306
 0 <= xp_22_2 <= 4.78647695267289
 0 <= xp_22_3 <= 2.81138678980696
 0 <= xp_22_4 <= 9.57295390534578
 0 <= xp_22_5 <= 0.83629662694102
 0 <= xp_22_6 <= 0.83629662694102
 0 <= xp_22_7 <= 1.97509016286593
 0 <= xp_23_0 <= 26.2099718352143
 0 <= xp_23_1 <= 4.1814831347051
 0 <= xp_23_2 <= 0.83629662694102
 0 <= xp_23_3 <= 2.50888988082306
 0 <= xp_23_4 <= 1.67259325388204
 0 <= xp_23_5 <= 3.95018032573187

End
